g3 1 1 0	# problem novec649
 2 0 14 0 0 	# vars, constraints, objectives, ranges, eqns
 0 13 0 0 0 0	# nonlinear constrs, objs; ccons: lin, nonlin, nd, nzlb
 0 0	# network constraints: nonlinear, linear
 0 2 0 	# nonlinear vars in constraints, objectives, both
 0 0 0 1	# linear network variables; functions; arith, flags
 0 0 0 0 0 	# discrete variables: binary, integer, nonlinear (b,c,o)
 0 20 	# nonzeros in Jacobian, obj. gradient
 0 0	# max name lengths: constraints, variables
 0 0 0 0 0	# common exprs: b,c,o,c1,o1
O0 0
o0
o54
3
o43
v0
o2
n29.8
o43
v1
o2
n29.8
o43
o0
o16
o44
o2
n-4.391027817387565
v1
n1
n-30.6610503233
O1 0
o5
v0
n-1.0
O2 0
o16
o5
v0
n-2.0
O3 0
o0
o0
o2
n29.8
o5
v1
n-1.0
o2
o2
n130.85262895814944
o5
o0
o16
o44
o2
n-4.391027817387565
v1
n1.0
n-1.0
o44
o2
n-4.391027817387565
v1
n6.8305296372
O4 0
o54
3
o2
n-29.8
o5
v1
n-2.0
o2
o2
n-574.5775337335278
o5
o0
o16
o44
o2
n-4.391027817387565
v1
n1.0
n-1.0
o44
o2
n-4.391027817387565
v1
o2
o2
n-574.5775337335278
o5
o0
o16
o44
o2
n-4.391027817387565
v1
n1.0
n-2.0
o44
o2
n-8.78205563477513
v1
O5 0
o54
17
o2
o2
n0.05623648
o5
v0
n4
v1
o2
o2
n2.973616
v0
o5
v1
n0.25
o2
o2
n-6.12697
v0
o5
v1
n0.793
o2
o2
n3.44024
v0
o5
v1
n1.16
o2
o2
n1.451737
o5
v0
n2
o5
v1
n0.75
o2
o2
n-2.837857
o5
v0
n2
o5
v1
n1.09
o2
o2
n0.2077767
o5
v0
n3
o5
v1
n0.75
o2
o2
o2
n2.168307
o5
v0
n2
o5
v1
n1.3
o44
o2
n-1.0
v0
o2
o2
o2
n-2.124648
v0
o5
v1
n2.25
o44
o16
o5
v0
n2
o2
o2
o2
n-1.296704
o5
v0
n2
o5
v1
n1.9
o44
o16
o5
v0
n2
o2
o2
o2
n-1.010569
v0
o5
v1
n0.88
o44
o0
o2
n-0.32
o5
o0
v0
n-1.16
n2
o2
n-0.12
o5
o0
v1
n-1.1
n2
o2
o2
o2
n2.701505
v0
o5
v1
n1.63
o44
o0
o2
n-1.32
o5
o0
v0
n-0.793
n2
o2
n-0.83
o5
o0
v1
n-1.04
n2
o2
o2
o2
n0.8167202
o5
v0
n2
o5
v1
n1.3
o44
o0
o2
n-1.35
o5
o0
v0
n-1.13
n2
o2
n-0.19
o5
o0
v1
n-1.15
n2
o2
o2
o2
n-1.814579
o5
v0
n2
o5
v1
n2
o44
o0
o2
n-1.48
o5
o0
v0
n-0.527
n2
o2
n-0.95
o5
o0
v1
n-0.9
n2
o2
o2
o2
n0.2075389
o5
v0
n3
o5
v1
n1.15
o44
o0
o2
n-0.51
o5
o0
v0
n-1.19
n2
o2
n-0.1
o5
o0
v1
n-0.8
n2
o2
o2
o2
n-1.009347
o5
v0
n3
o5
v1
n1.66
o44
o0
o2
n-1.3
o5
o0
v0
n-0.83
n2
o2
n-0.11
o5
o0
v1
n-1.2
n2
o2
o2
o2
n-0.04848043
v0
o5
v1
n1.5
o44
o0
o2
n-5.15
o5
o0
v0
n-0.82
n2
o2
n-65
o5
o0
v1
n-1.19
n2
O6 0
o54
27
o2
n2.973616
o5
v1
n0.25
o2
n3.44024
o5
v1
n1.16
o2
n-6.12697
o5
v1
n0.793
o2
o2
n0.6233301
o5
v0
n2.0
o5
v1
n0.75
o2
o2
n2.701505
o5
v1
n1.63
o44
o0
o2
n-1.32
o5
o0
v0
n-0.793
n2.0
o2
n-0.83
o5
o0
v1
n-1.04
n2.0
o2
o2
n2.903474
v0
o5
v1
n0.75
o2
o2
n0.22494592
v1
o5
v0
n3.0
o2
o2
n-1.010569
o5
v1
n0.88
o44
o0
o2
n-0.12
o5
o0
v1
n-1.1
n2.0
o2
n-0.32
o5
o0
v0
n-1.16
n2.0
o2
o2
n-2.124648
o5
v1
n2.25
o44
o16
o5
v0
n2.0
o2
o2
n-5.675714
v0
o5
v1
n1.09
o2
o2
n-0.04848043
o5
v1
n1.5
o44
o0
o2
n-65.0
o5
o0
v1
n-1.19
n2.0
o2
n-5.15
o5
o0
v0
n-0.82
n2.0
o2
o2
o2
n0.6226167
o5
v0
n2.0
o5
v1
n1.15
o44
o0
o2
n-0.51
o5
o0
v0
n-1.19
n2.0
o2
n-0.1
o5
o0
v1
n-0.8
n2.0
o2
o2
o2
n2.593408
o5
v0
n3.0
o5
v1
n1.9
o44
o16
o5
v0
n2.0
o2
o2
o2
n1.6334404
v0
o5
v1
n1.3
o44
o0
o2
n-1.35
o5
o0
v0
n-1.13
n2.0
o2
n-0.19
o5
o0
v1
n-1.15
n2.0
o2
o2
o2
n4.249296
o5
v0
n2.0
o5
v1
n2.25
o44
o16
o5
v0
n2.0
o2
o2
o2
n4.336614
v0
o5
v1
n1.3
o44
o2
n-1.0
v0
o2
o2
o2
n-2.593408
v0
o5
v1
n1.9
o44
o16
o5
v0
n2.0
o2
o2
o2
n-3.028041
o5
v0
n2.0
o5
v1
n1.66
o44
o0
o2
n-1.3
o5
o0
v0
n-0.83
n2.0
o2
n-0.11
o5
o0
v1
n-1.2
n2.0
o2
o2
o2
n-2.168307
o5
v0
n2.0
o5
v1
n1.3
o44
o2
n-1.0
v0
o2
o2
o2
n-3.629158
v0
o5
v1
n2.0
o44
o0
o2
n-1.48
o5
o0
v0
n-0.527
n2.0
o2
n-0.95
o5
o0
v1
n-0.9
n2.0
o2
o2
o2
o2
n2.701505
v0
o5
v1
n1.63
o0
o2
n-2.64
v0
n2.0935200000000003
o44
o0
o2
n-1.32
o5
o0
v0
n-0.793
n2.0
o2
n-0.83
o5
o0
v1
n-1.04
n2.0
o2
o2
o2
o2
n0.8167202
o5
v0
n2.0
o5
v1
n1.3
o0
o2
n-2.7
v0
n3.0509999999999997
o44
o0
o2
n-1.35
o5
o0
v0
n-1.13
n2.0
o2
n-0.19
o5
o0
v1
n-1.15
n2.0
o2
o2
o2
o2
n0.2075389
o5
v0
n3.0
o5
v1
n1.15
o0
o2
n-1.02
v0
n1.2138
o44
o0
o2
n-0.51
o5
o0
v0
n-1.19
n2.0
o2
n-0.1
o5
o0
v1
n-0.8
n2.0
o2
o2
o2
o2
n-1.009347
o5
v0
n3.0
o5
v1
n1.66
o0
o2
n-2.6
v0
n2.158
o44
o0
o2
n-1.3
o5
o0
v0
n-0.83
n2.0
o2
n-0.11
o5
o0
v1
n-1.2
n2.0
o2
o2
o2
o2
n-1.010569
v0
o5
v1
n0.88
o0
o2
n-0.64
v0
n0.7424
o44
o0
o2
n-0.12
o5
o0
v1
n-1.1
n2.0
o2
n-0.32
o5
o0
v0
n-1.16
n2.0
o2
o2
o2
o2
n-0.04848043
v0
o5
v1
n1.5
o0
o2
n-10.3
v0
n8.446
o44
o0
o2
n-65.0
o5
o0
v1
n-1.19
n2.0
o2
n-5.15
o5
o0
v0
n-0.82
n2.0
o2
o2
o2
o2
n-1.814579
o5
v0
n2.0
o5
v1
n2.0
o0
o2
n-2.96
v0
n1.55992
o44
o0
o2
n-1.48
o5
o0
v0
n-0.527
n2.0
o2
n-0.95
o5
o0
v1
n-0.9
n2.0
O7 0
o54
45
o2
n2.903474
o5
v1
n0.75
o2
n-5.675714
o5
v1
n1.09
o2
o2
n0.67483776
v1
o5
v0
n2.0
o2
o2
n1.2466602
o5
v1
n0.75
v0
o2
o2
n1.6334404
o5
v1
n1.3
o44
o0
o2
n-1.35
o5
o0
v0
n-1.13
n2.0
o2
n-0.19
o5
o0
v1
n-1.15
n2.0
o2
o2
n4.336614
o5
v1
n1.3
o44
o2
n-1.0
v0
o2
o2
n-2.593408
o5
v1
n1.9
o44
o16
o5
v0
n2.0
o2
o2
n-3.629158
o5
v1
n2.0
o44
o0
o2
n-1.48
o5
o0
v0
n-0.527
n2.0
o2
n-0.95
o5
o0
v1
n-0.9
n2.0
o2
o2
o2
n0.64676416
v0
o5
v1
n0.88
o44
o0
o2
n-0.12
o5
o0
v1
n-1.1
n2.0
o2
n-0.32
o5
o0
v0
n-1.16
n2.0
o2
o2
o2
n0.64676416
o5
v1
n0.88
o0
v0
n-1.16
o44
o0
o2
n-0.12
o5
o0
v1
n-1.1
n2.0
o2
n-0.32
o5
o0
v0
n-1.16
n2.0
o2
o2
o2
n1.2452334
o5
v1
n1.15
v0
o44
o0
o2
n-0.51
o5
o0
v0
n-1.19
n2.0
o2
n-0.1
o5
o0
v1
n-0.8
n2.0
o2
o2
o2
n5.37115384
o5
v1
n2.0
o5
v0
n2.0
o44
o0
o2
n-1.48
o5
o0
v0
n-0.527
n2.0
o2
n-0.95
o5
o0
v1
n-0.9
n2.0
o2
o2
o2
n2.701505
o5
v1
n1.63
o0
o2
n-2.64
v0
n2.0935200000000003
o44
o0
o2
n-1.32
o5
o0
v0
n-0.793
n2.0
o2
n-0.83
o5
o0
v1
n-1.04
n2.0
o2
o2
o2
n12.747888
o5
v1
n2.25
v0
o44
o16
o5
v0
n2.0
o2
o2
o2
n12.96704
o5
v1
n1.9
o5
v0
n2.0
o44
o16
o5
v0
n2.0
o2
o2
o2
n2.168307
o5
v1
n1.3
o5
v0
n2.0
o44
o2
n-1.0
v0
o2
o2
o2
n2.6243022000000003
o5
v1
n1.66
o5
v0
n3.0
o44
o0
o2
n-1.3
o5
o0
v0
n-0.83
n2.0
o2
n-0.11
o5
o0
v1
n-1.2
n2.0
o2
o2
o2
n0.49934842900000004
v0
o5
v1
n1.5
o44
o0
o2
n-65.0
o5
o0
v1
n-1.19
n2.0
o2
n-5.15
o5
o0
v0
n-0.82
n2.0
o2
o2
o2
n0.49934842900000004
o5
v1
n1.5
o0
v0
n-0.82
o44
o0
o2
n-65.0
o5
o0
v1
n-1.19
n2.0
o2
n-5.15
o5
o0
v0
n-0.82
n2.0
o2
o2
o2
n-5.186816
o5
v1
n1.9
o5
v0
n4.0
o44
o16
o5
v0
n2.0
o2
o2
o2
n-6.056082
o5
v1
n1.66
v0
o44
o0
o2
n-1.3
o5
o0
v0
n-0.83
n2.0
o2
n-0.11
o5
o0
v1
n-1.2
n2.0
o2
o2
o2
n-2.20514454
o5
v1
n1.3
o5
v0
n2.0
o44
o0
o2
n-1.35
o5
o0
v0
n-1.13
n2.0
o2
n-0.19
o5
o0
v1
n-1.15
n2.0
o2
o2
o2
n-0.211689678
o5
v1
n1.15
o5
v0
n3.0
o44
o0
o2
n-0.51
o5
o0
v0
n-1.19
n2.0
o2
n-0.1
o5
o0
v1
n-0.8
n2.0
o2
o2
o2
n-1.010569
o5
v1
n0.88
o0
o2
n-0.64
v0
n0.7424
o44
o0
o2
n-0.12
o5
o0
v1
n-1.1
n2.0
o2
n-0.32
o5
o0
v0
n-1.16
n2.0
o2
o2
o2
n-8.498592
o5
v1
n2.25
o5
v0
n3.0
o44
o16
o5
v0
n2.0
o2
o2
o2
n-4.336614
v0
o5
v1
n1.3
o44
o2
n-1.0
v0
o2
o2
o2
n-4.336614
o5
v1
n1.3
v0
o44
o2
n-1.0
v0
o2
o2
o2
n-0.04848043
o5
v1
n1.5
o0
o2
n-10.3
v0
n8.446
o44
o0
o2
n-65.0
o5
o0
v1
n-1.19
n2.0
o2
n-5.15
o5
o0
v0
n-0.82
n2.0
o2
o2
o2
n-7.1319732
v0
o5
v1
n1.63
o44
o0
o2
n-1.32
o5
o0
v0
n-0.793
n2.0
o2
n-0.83
o5
o0
v1
n-1.04
n2.0
o2
o2
o2
n-7.1319732
o5
v1
n1.63
o0
v0
n-0.793
o44
o0
o2
n-1.32
o5
o0
v0
n-0.793
n2.0
o2
n-0.83
o5
o0
v1
n-1.04
n2.0
o2
o2
o2
o2
n0.6226167
o5
v1
n1.15
o5
v0
n2.0
o0
o2
n-1.02
v0
n1.2138
o44
o0
o2
n-0.51
o5
o0
v0
n-1.19
n2.0
o2
n-0.1
o5
o0
v1
n-0.8
n2.0
o2
o2
o2
o2
n7.8729066
o5
v1
n1.66
o5
v0
n2.0
o0
v0
n-0.83
o44
o0
o2
n-1.3
o5
o0
v0
n-0.83
n2.0
o2
n-0.11
o5
o0
v1
n-1.2
n2.0
o2
o2
o2
o2
n10.74230768
v0
o5
v1
n2.0
o0
v0
n-0.527
o44
o0
o2
n-1.48
o5
o0
v0
n-0.527
n2.0
o2
n-0.95
o5
o0
v1
n-0.9
n2.0
o2
o2
o2
o2
n1.6334404
o5
v1
n1.3
v0
o0
o2
n-2.7
v0
n3.0509999999999997
o44
o0
o2
n-1.35
o5
o0
v0
n-1.13
n2.0
o2
n-0.19
o5
o0
v1
n-1.15
n2.0
o2
o2
o2
o2
n-3.028041
o5
v1
n1.66
o5
v0
n2.0
o0
o2
n-2.6
v0
n2.158
o44
o0
o2
n-1.3
o5
o0
v0
n-0.83
n2.0
o2
n-0.11
o5
o0
v1
n-1.2
n2.0
o2
o2
o2
o2
n-4.41028908
v0
o5
v1
n1.3
o0
v0
n-1.13
o44
o0
o2
n-1.35
o5
o0
v0
n-1.13
n2.0
o2
n-0.19
o5
o0
v1
n-1.15
n2.0
o2
o2
o2
o2
n-0.635069034
o5
v1
n1.15
o5
v0
n2.0
o0
v0
n-1.19
o44
o0
o2
n-0.51
o5
o0
v0
n-1.19
n2.0
o2
n-0.1
o5
o0
v1
n-0.8
n2.0
o2
o2
o2
o2
n-3.629158
o5
v1
n2.0
v0
o0
o2
n-2.96
v0
n1.55992
o44
o0
o2
n-1.48
o5
o0
v0
n-0.527
n2.0
o2
n-0.95
o5
o0
v1
n-0.9
n2.0
o2
o2
o2
o2
o2
n0.64676416
v0
o5
v1
n0.88
o0
v0
n-1.16
o0
o2
n-0.64
v0
n0.7424
o44
o0
o2
n-0.12
o5
o0
v1
n-1.1
n2.0
o2
n-0.32
o5
o0
v0
n-1.16
n2.0
o2
o2
o2
o2
o2
n5.37115384
o5
v1
n2.0
o5
v0
n2.0
o0
v0
n-0.527
o0
o2
n-2.96
v0
n1.55992
o44
o0
o2
n-1.48
o5
o0
v0
n-0.527
n2.0
o2
n-0.95
o5
o0
v1
n-0.9
n2.0
o2
o2
o2
o2
o2
n2.6243022000000003
o5
v1
n1.66
o5
v0
n3.0
o0
v0
n-0.83
o0
o2
n-2.6
v0
n2.158
o44
o0
o2
n-1.3
o5
o0
v0
n-0.83
n2.0
o2
n-0.11
o5
o0
v1
n-1.2
n2.0
o2
o2
o2
o2
o2
n0.49934842900000004
v0
o5
v1
n1.5
o0
v0
n-0.82
o0
o2
n-10.3
v0
n8.446
o44
o0
o2
n-65.0
o5
o0
v1
n-1.19
n2.0
o2
n-5.15
o5
o0
v0
n-0.82
n2.0
o2
o2
o2
o2
o2
n-2.20514454
o5
v1
n1.3
o5
v0
n2.0
o0
v0
n-1.13
o0
o2
n-2.7
v0
n3.0509999999999997
o44
o0
o2
n-1.35
o5
o0
v0
n-1.13
n2.0
o2
n-0.19
o5
o0
v1
n-1.15
n2.0
o2
o2
o2
o2
o2
n-0.211689678
o5
v1
n1.15
o5
v0
n3.0
o0
v0
n-1.19
o0
o2
n-1.02
v0
n1.2138
o44
o0
o2
n-0.51
o5
o0
v0
n-1.19
n2.0
o2
n-0.1
o5
o0
v1
n-0.8
n2.0
o2
o2
o2
o2
o2
n-7.1319732
v0
o5
v1
n1.63
o0
v0
n-0.793
o0
o2
n-2.64
v0
n2.0935200000000003
o44
o0
o2
n-1.32
o5
o0
v0
n-0.793
n2.0
o2
n-0.83
o5
o0
v1
n-1.04
n2.0
O8 0
o54
24
o2
n0.05623648
o5
v0
n4.0
o2
o2
n0.743404
v0
o5
v1
n-0.75
o2
o2
n1.0888027500000002
o5
v0
n2.0
o5
v1
n-0.25
o2
o2
n0.155832525
o5
v0
n3.0
o5
v1
n-0.25
o2
o2
n3.9906783999999997
v0
o5
v1
n0.15999999999999992
o2
o2
n-4.85868721
v0
o5
v1
n-0.20699999999999996
o2
o2
n-3.09326413
o5
v0
n2.0
o5
v1
n0.09000000000000008
o2
o2
o2
n1.06173626
o5
v0
n2.0
o5
v1
n0.30000000000000004
o44
o0
o2
n-1.35
o5
o0
v0
n-1.13
n2.0
o2
n-0.19
o5
o0
v1
n-1.15
n2.0
o2
o2
o2
n4.40345315
v0
o5
v1
n0.6299999999999999
o44
o0
o2
n-1.32
o5
o0
v0
n-0.793
n2.0
o2
n-0.83
o5
o0
v1
n-1.04
n2.0
o2
o2
o2
n2.8187991
o5
v0
n2.0
o5
v1
n0.30000000000000004
o44
o2
n-1.0
v0
o2
o2
o2
n0.23866973499999997
o5
v0
n3.0
o5
v1
n0.1499999999999999
o44
o0
o2
n-0.51
o5
o0
v0
n-1.19
n2.0
o2
n-0.1
o5
o0
v1
n-0.8
n2.0
o2
o2
o2
n-1.6755160199999999
o5
v0
n3.0
o5
v1
n0.6599999999999999
o44
o0
o2
n-1.3
o5
o0
v0
n-0.83
n2.0
o2
n-0.11
o5
o0
v1
n-1.2
n2.0
o2
o2
o2
n-2.4637376
o5
v0
n2.0
o5
v1
n0.8999999999999999
o44
o16
o5
v0
n2.0
o2
o2
o2
n-0.88930072
v0
o5
v1
n-0.12
o44
o0
o2
n-0.12
o5
o0
v1
n-1.1
n2.0
o2
n-0.32
o5
o0
v0
n-1.16
n2.0
o2
o2
o2
n-0.072720645
v0
o5
v1
n0.5
o44
o0
o2
n-65.0
o5
o0
v1
n-1.19
n2.0
o2
n-5.15
o5
o0
v0
n-0.82
n2.0
o2
o2
o2
n-4.780458
v0
o5
v1
n1.25
o44
o16
o5
v0
n2.0
o2
o2
o2
n-3.629158
v1
o5
v0
n2.0
o44
o0
o2
n-1.48
o5
o0
v0
n-0.527
n2.0
o2
n-0.95
o5
o0
v1
n-0.9
n2.0
o2
o2
o2
o2
n2.701505
v0
o5
v1
n1.63
o0
o2
n-1.66
v1
n1.7264
o44
o0
o2
n-1.32
o5
o0
v0
n-0.793
n2.0
o2
n-0.83
o5
o0
v1
n-1.04
n2.0
o2
o2
o2
o2
n0.8167202
o5
v0
n2.0
o5
v1
n1.3
o0
o2
n-0.38
v1
n0.43699999999999994
o44
o0
o2
n-1.35
o5
o0
v0
n-1.13
n2.0
o2
n-0.19
o5
o0
v1
n-1.15
n2.0
o2
o2
o2
o2
n0.2075389
o5
v0
n3.0
o5
v1
n1.15
o0
o2
n-0.2
v1
n0.16000000000000003
o44
o0
o2
n-0.51
o5
o0
v0
n-1.19
n2.0
o2
n-0.1
o5
o0
v1
n-0.8
n2.0
o2
o2
o2
o2
n-1.009347
o5
v0
n3.0
o5
v1
n1.66
o0
o2
n-0.22
v1
n0.264
o44
o0
o2
n-1.3
o5
o0
v0
n-0.83
n2.0
o2
n-0.11
o5
o0
v1
n-1.2
n2.0
o2
o2
o2
o2
n-1.010569
v0
o5
v1
n0.88
o0
o2
n-0.24
v1
n0.264
o44
o0
o2
n-0.12
o5
o0
v1
n-1.1
n2.0
o2
n-0.32
o5
o0
v0
n-1.16
n2.0
o2
o2
o2
o2
n-0.04848043
v0
o5
v1
n1.5
o0
o2
n-130.0
v1
n154.7
o44
o0
o2
n-65.0
o5
o0
v1
n-1.19
n2.0
o2
n-5.15
o5
o0
v0
n-0.82
n2.0
o2
o2
o2
o2
n-1.814579
o5
v0
n2.0
o5
v1
n2.0
o0
o2
n-1.9
v1
n1.71
o44
o0
o2
n-1.48
o5
o0
v0
n-0.527
n2.0
o2
n-0.95
o5
o0
v1
n-0.9
n2.0
O9 0
o54
44
o2
o2
n1.0057482524699999
v0
o5
v1
n-1.2069999999999999
o2
o2
n0.6385085439999997
v0
o5
v1
n-0.8400000000000001
o2
o2
n-0.27839377170000024
o5
v0
n2.0
o5
v1
n-0.9099999999999999
o2
o2
n-0.27220068750000004
o5
v0
n2.0
o5
v1
n-1.25
o2
o2
n-0.557553
v0
o5
v1
n-1.75
o2
o2
n-0.03895813125
o5
v0
n3.0
o5
v1
n-1.25
o2
o2
n-3.629158
o5
v0
n2.0
o44
o0
o2
n-1.48
o5
o0
v0
n-0.527
n2.0
o2
n-0.95
o5
o0
v1
n-0.9
n2.0
o2
o2
o2
n0.24253656
v0
o5
v1
n0.88
o44
o0
o2
n-0.12
o5
o0
v1
n-1.1
n2.0
o2
n-0.32
o5
o0
v0
n-1.16
n2.0
o2
o2
o2
n0.03580046024999997
o5
v0
n3.0
o5
v1
n-0.8500000000000001
o44
o0
o2
n-0.51
o5
o0
v0
n-1.19
n2.0
o2
n-0.1
o5
o0
v1
n-0.8
n2.0
o2
o2
o2
n0.31852087800000006
o5
v0
n2.0
o5
v1
n-0.7
o44
o0
o2
n-1.35
o5
o0
v0
n-1.13
n2.0
o2
n-0.19
o5
o0
v1
n-1.15
n2.0
o2
o2
o2
n6.3024559
v0
o5
v1
n1.5
o44
o0
o2
n-65.0
o5
o0
v1
n-1.19
n2.0
o2
n-5.15
o5
o0
v0
n-0.82
n2.0
o2
o2
o2
n3.4477000999999996
o5
v0
n2.0
o5
v1
n2.0
o44
o0
o2
n-1.48
o5
o0
v0
n-0.527
n2.0
o2
n-0.95
o5
o0
v1
n-0.9
n2.0
o2
o2
o2
n2.7741754844999993
v0
o5
v1
n-0.3700000000000001
o44
o0
o2
n-1.32
o5
o0
v0
n-0.793
n2.0
o2
n-0.83
o5
o0
v1
n-1.04
n2.0
o2
o2
o2
n0.8456397300000001
o5
v0
n2.0
o5
v1
n-0.7
o44
o2
n-1.0
v0
o2
o2
o2
n0.10671608640000001
v0
o5
v1
n-1.12
o44
o0
o2
n-0.12
o5
o0
v1
n-1.1
n2.0
o2
n-0.32
o5
o0
v0
n-1.16
n2.0
o2
o2
o2
n0.22205634
o5
v0
n3.0
o5
v1
n1.66
o44
o0
o2
n-1.3
o5
o0
v0
n-0.83
n2.0
o2
n-0.11
o5
o0
v1
n-1.2
n2.0
o2
o2
o2
n-2.21736384
o5
v0
n2.0
o5
v1
n-0.10000000000000009
o44
o16
o5
v0
n2.0
o2
o2
o2
n-4.4844983
v0
o5
v1
n1.63
o44
o0
o2
n-1.32
o5
o0
v0
n-0.793
n2.0
o2
n-0.83
o5
o0
v1
n-1.04
n2.0
o2
o2
o2
n-0.0363603225
v0
o5
v1
n-0.5
o44
o0
o2
n-65.0
o5
o0
v1
n-1.19
n2.0
o2
n-5.15
o5
o0
v0
n-0.82
n2.0
o2
o2
o2
n-5.9755725
v0
o5
v1
n0.25
o44
o16
o5
v0
n2.0
o2
o2
o2
n-1.1058405731999998
o5
v0
n3.0
o5
v1
n-0.3400000000000001
o44
o0
o2
n-1.3
o5
o0
v0
n-0.83
n2.0
o2
n-0.11
o5
o0
v1
n-1.2
n2.0
o2
o2
o2
n-0.310353676
o5
v0
n2.0
o5
v1
n1.3
o44
o0
o2
n-1.35
o5
o0
v0
n-1.13
n2.0
o2
n-0.19
o5
o0
v1
n-1.15
n2.0
o2
o2
o2
n-0.04150778
o5
v0
n3.0
o5
v1
n1.15
o44
o0
o2
n-0.51
o5
o0
v0
n-1.19
n2.0
o2
n-0.1
o5
o0
v1
n-0.8
n2.0
o2
o2
o2
o2
n1.06173626
o5
v0
n2.0
o5
v1
n0.30000000000000004
o0
o2
n-0.38
v1
n0.43699999999999994
o44
o0
o2
n-1.35
o5
o0
v0
n-1.13
n2.0
o2
n-0.19
o5
o0
v1
n-1.15
n2.0
o2
o2
o2
o2
n9.45368385
v0
o5
v1
n0.5
o0
v1
n-1.19
o44
o0
o2
n-65.0
o5
o0
v1
n-1.19
n2.0
o2
n-5.15
o5
o0
v0
n-0.82
n2.0
o2
o2
o2
o2
n6.895400199999999
v1
o5
v0
n2.0
o0
v1
n-0.9
o44
o0
o2
n-1.48
o5
o0
v0
n-0.527
n2.0
o2
n-0.95
o5
o0
v1
n-0.9
n2.0
o2
o2
o2
o2
n4.40345315
v0
o5
v1
n0.6299999999999999
o0
o2
n-1.66
v1
n1.7264
o44
o0
o2
n-1.32
o5
o0
v0
n-0.793
n2.0
o2
n-0.83
o5
o0
v1
n-1.04
n2.0
o2
o2
o2
o2
n0.3686135244
o5
v0
n3.0
o5
v1
n0.6599999999999999
o0
v1
n-1.2
o44
o0
o2
n-1.3
o5
o0
v0
n-0.83
n2.0
o2
n-0.11
o5
o0
v1
n-1.2
n2.0
o2
o2
o2
o2
n0.21343217280000001
v0
o5
v1
n-0.12
o0
v1
n-1.1
o44
o0
o2
n-0.12
o5
o0
v1
n-1.1
n2.0
o2
n-0.32
o5
o0
v0
n-1.16
n2.0
o2
o2
o2
o2
n0.23866973499999997
o5
v0
n3.0
o5
v1
n0.1499999999999999
o0
o2
n-0.2
v1
n0.16000000000000003
o44
o0
o2
n-0.51
o5
o0
v0
n-1.19
n2.0
o2
n-0.1
o5
o0
v1
n-0.8
n2.0
o2
o2
o2
o2
n-0.047733947
o5
v0
n3.0
o5
v1
n0.1499999999999999
o0
v1
n-0.8
o44
o0
o2
n-0.51
o5
o0
v0
n-1.19
n2.0
o2
n-0.1
o5
o0
v1
n-0.8
n2.0
o2
o2
o2
o2
n-1.6755160199999999
o5
v0
n3.0
o5
v1
n0.6599999999999999
o0
o2
n-0.22
v1
n0.264
o44
o0
o2
n-1.3
o5
o0
v0
n-0.83
n2.0
o2
n-0.11
o5
o0
v1
n-1.2
n2.0
o2
o2
o2
o2
n-0.88930072
v0
o5
v1
n-0.12
o0
o2
n-0.24
v1
n0.264
o44
o0
o2
n-0.12
o5
o0
v1
n-1.1
n2.0
o2
n-0.32
o5
o0
v0
n-1.16
n2.0
o2
o2
o2
o2
n-0.072720645
v0
o5
v1
n0.5
o0
o2
n-130.0
v1
n154.7
o44
o0
o2
n-65.0
o5
o0
v1
n-1.19
n2.0
o2
n-5.15
o5
o0
v0
n-0.82
n2.0
o2
o2
o2
o2
n-7.309732229
v0
o5
v1
n0.6299999999999999
o0
v1
n-1.04
o44
o0
o2
n-1.32
o5
o0
v0
n-0.793
n2.0
o2
n-0.83
o5
o0
v1
n-1.04
n2.0
o2
o2
o2
o2
n-0.4034597788
o5
v0
n2.0
o5
v1
n0.30000000000000004
o0
v1
n-1.15
o44
o0
o2
n-1.35
o5
o0
v0
n-1.13
n2.0
o2
n-0.19
o5
o0
v1
n-1.15
n2.0
o2
o2
o2
o2
n-3.629158
o5
v0
n2.0
v1
o0
o2
n-1.9
v1
n1.71
o44
o0
o2
n-1.48
o5
o0
v0
n-0.527
n2.0
o2
n-0.95
o5
o0
v1
n-0.9
n2.0
o2
o2
o2
o2
o2
n0.24253656
v0
o5
v1
n0.88
o0
v1
n-1.1
o0
o2
n-0.24
v1
n0.264
o44
o0
o2
n-0.12
o5
o0
v1
n-1.1
n2.0
o2
n-0.32
o5
o0
v0
n-1.16
n2.0
o2
o2
o2
o2
o2
n6.3024559
v0
o5
v1
n1.5
o0
v1
n-1.19
o0
o2
n-130.0
v1
n154.7
o44
o0
o2
n-65.0
o5
o0
v1
n-1.19
n2.0
o2
n-5.15
o5
o0
v0
n-0.82
n2.0
o2
o2
o2
o2
o2
n3.4477000999999996
o5
v0
n2.0
o5
v1
n2.0
o0
v1
n-0.9
o0
o2
n-1.9
v1
n1.71
o44
o0
o2
n-1.48
o5
o0
v0
n-0.527
n2.0
o2
n-0.95
o5
o0
v1
n-0.9
n2.0
o2
o2
o2
o2
o2
n0.22205634
o5
v0
n3.0
o5
v1
n1.66
o0
v1
n-1.2
o0
o2
n-0.22
v1
n0.264
o44
o0
o2
n-1.3
o5
o0
v0
n-0.83
n2.0
o2
n-0.11
o5
o0
v1
n-1.2
n2.0
o2
o2
o2
o2
o2
n-4.4844983
v0
o5
v1
n1.63
o0
v1
n-1.04
o0
o2
n-1.66
v1
n1.7264
o44
o0
o2
n-1.32
o5
o0
v0
n-0.793
n2.0
o2
n-0.83
o5
o0
v1
n-1.04
n2.0
o2
o2
o2
o2
o2
n-0.310353676
o5
v0
n2.0
o5
v1
n1.3
o0
v1
n-1.15
o0
o2
n-0.38
v1
n0.43699999999999994
o44
o0
o2
n-1.35
o5
o0
v0
n-1.13
n2.0
o2
n-0.19
o5
o0
v1
n-1.15
n2.0
o2
o2
o2
o2
o2
n-0.04150778
o5
v0
n3.0
o5
v1
n1.15
o0
v1
n-0.8
o0
o2
n-0.2
v1
n0.16000000000000003
o44
o0
o2
n-0.51
o5
o0
v0
n-1.19
n2.0
o2
n-0.1
o5
o0
v1
n-0.8
n2.0
O10 0
o54
41
o2
n0.743404
o5
v1
n-0.75
o2
n0.22494592
o5
v0
n3.0
o2
n3.9906783999999997
o5
v1
n0.15999999999999992
o2
n-4.85868721
o5
v1
n-0.20699999999999996
o2
o2
n2.1776055000000003
v0
o5
v1
n-0.25
o2
o2
n0.467497575
o5
v1
n-0.25
o5
v0
n2.0
o2
o2
n4.40345315
o5
v1
n0.6299999999999999
o44
o0
o2
n-1.32
o5
o0
v0
n-0.793
n2.0
o2
n-0.83
o5
o0
v1
n-1.04
n2.0
o2
o2
n-0.88930072
o5
v1
n-0.12
o44
o0
o2
n-0.12
o5
o0
v1
n-1.1
n2.0
o2
n-0.32
o5
o0
v0
n-1.16
n2.0
o2
o2
n-0.072720645
o5
v1
n0.5
o44
o0
o2
n-65.0
o5
o0
v1
n-1.19
n2.0
o2
n-5.15
o5
o0
v0
n-0.82
n2.0
o2
o2
n-4.780458
o5
v1
n1.25
o44
o16
o5
v0
n2.0
o2
o2
n-6.18652826
v0
o5
v1
n0.09000000000000008
o2
o2
o2
n2.12347252
v0
o5
v1
n0.30000000000000004
o44
o0
o2
n-1.35
o5
o0
v0
n-1.13
n2.0
o2
n-0.19
o5
o0
v1
n-1.15
n2.0
o2
o2
o2
n0.24253656
o5
v1
n0.88
o0
v1
n-1.1
o44
o0
o2
n-0.12
o5
o0
v1
n-1.1
n2.0
o2
n-0.32
o5
o0
v0
n-1.16
n2.0
o2
o2
o2
n4.9274752
o5
v1
n0.8999999999999999
o5
v0
n3.0
o44
o16
o5
v0
n2.0
o2
o2
o2
n0.716009205
o5
v1
n0.1499999999999999
o5
v0
n2.0
o44
o0
o2
n-0.51
o5
o0
v0
n-1.19
n2.0
o2
n-0.1
o5
o0
v1
n-0.8
n2.0
o2
o2
o2
n6.3024559
o5
v1
n1.5
o0
v1
n-1.19
o44
o0
o2
n-65.0
o5
o0
v1
n-1.19
n2.0
o2
n-5.15
o5
o0
v0
n-0.82
n2.0
o2
o2
o2
n9.560916
o5
v1
n1.25
o5
v0
n2.0
o44
o16
o5
v0
n2.0
o2
o2
o2
n5.6375982
v0
o5
v1
n0.30000000000000004
o44
o2
n-1.0
v0
o2
o2
o2
n-4.9274752
v0
o5
v1
n0.8999999999999999
o44
o16
o5
v0
n2.0
o2
o2
o2
n-5.02654806
o5
v1
n0.6599999999999999
o5
v0
n2.0
o44
o0
o2
n-1.3
o5
o0
v0
n-0.83
n2.0
o2
n-0.11
o5
o0
v1
n-1.2
n2.0
o2
o2
o2
n-4.4844983
o5
v1
n1.63
o0
v1
n-1.04
o44
o0
o2
n-1.32
o5
o0
v0
n-0.793
n2.0
o2
n-0.83
o5
o0
v1
n-1.04
n2.0
o2
o2
o2
n-2.8187991
o5
v1
n0.30000000000000004
o5
v0
n2.0
o44
o2
n-1.0
v0
o2
o2
o2
n-7.258316
v0
v1
o44
o0
o2
n-1.48
o5
o0
v0
n-0.527
n2.0
o2
n-0.95
o5
o0
v1
n-0.9
n2.0
o2
o2
o2
o2
n1.06173626
o5
v1
n0.30000000000000004
o5
v0
n2.0
o0
o2
n-2.7
v0
n3.0509999999999997
o44
o0
o2
n-1.35
o5
o0
v0
n-1.13
n2.0
o2
n-0.19
o5
o0
v1
n-1.15
n2.0
o2
o2
o2
o2
n6.895400199999999
v0
o5
v1
n2.0
o0
v1
n-0.9
o44
o0
o2
n-1.48
o5
o0
v0
n-0.527
n2.0
o2
n-0.95
o5
o0
v1
n-0.9
n2.0
o2
o2
o2
o2
n4.40345315
v0
o5
v1
n0.6299999999999999
o0
o2
n-2.64
v0
n2.0935200000000003
o44
o0
o2
n-1.32
o5
o0
v0
n-0.793
n2.0
o2
n-0.83
o5
o0
v1
n-1.04
n2.0
o2
o2
o2
o2
n0.66616902
o5
v1
n1.66
o5
v0
n2.0
o0
v1
n-1.2
o44
o0
o2
n-1.3
o5
o0
v0
n-0.83
n2.0
o2
n-0.11
o5
o0
v1
n-1.2
n2.0
o2
o2
o2
o2
n0.23866973499999997
o5
v1
n0.1499999999999999
o5
v0
n3.0
o0
o2
n-1.02
v0
n1.2138
o44
o0
o2
n-0.51
o5
o0
v0
n-1.19
n2.0
o2
n-0.1
o5
o0
v1
n-0.8
n2.0
o2
o2
o2
o2
n-1.6755160199999999
o5
v1
n0.6599999999999999
o5
v0
n3.0
o0
o2
n-2.6
v0
n2.158
o44
o0
o2
n-1.3
o5
o0
v0
n-0.83
n2.0
o2
n-0.11
o5
o0
v1
n-1.2
n2.0
o2
o2
o2
o2
n-0.88930072
v0
o5
v1
n-0.12
o0
o2
n-0.64
v0
n0.7424
o44
o0
o2
n-0.12
o5
o0
v1
n-1.1
n2.0
o2
n-0.32
o5
o0
v0
n-1.16
n2.0
o2
o2
o2
o2
n-0.072720645
v0
o5
v1
n0.5
o0
o2
n-10.3
v0
n8.446
o44
o0
o2
n-65.0
o5
o0
v1
n-1.19
n2.0
o2
n-5.15
o5
o0
v0
n-0.82
n2.0
o2
o2
o2
o2
n-0.12452334000000001
o5
v1
n1.15
o5
v0
n2.0
o0
v1
n-0.8
o44
o0
o2
n-0.51
o5
o0
v0
n-1.19
n2.0
o2
n-0.1
o5
o0
v1
n-0.8
n2.0
o2
o2
o2
o2
n-0.620707352
v0
o5
v1
n1.3
o0
v1
n-1.15
o44
o0
o2
n-1.35
o5
o0
v0
n-1.13
n2.0
o2
n-0.19
o5
o0
v1
n-1.15
n2.0
o2
o2
o2
o2
n-3.629158
v1
o5
v0
n2.0
o0
o2
n-2.96
v0
n1.55992
o44
o0
o2
n-1.48
o5
o0
v0
n-0.527
n2.0
o2
n-0.95
o5
o0
v1
n-0.9
n2.0
o2
o2
o2
o2
o2
n0.24253656
v0
o5
v1
n0.88
o0
v1
n-1.1
o0
o2
n-0.64
v0
n0.7424
o44
o0
o2
n-0.12
o5
o0
v1
n-1.1
n2.0
o2
n-0.32
o5
o0
v0
n-1.16
n2.0
o2
o2
o2
o2
o2
n6.3024559
v0
o5
v1
n1.5
o0
v1
n-1.19
o0
o2
n-10.3
v0
n8.446
o44
o0
o2
n-65.0
o5
o0
v1
n-1.19
n2.0
o2
n-5.15
o5
o0
v0
n-0.82
n2.0
o2
o2
o2
o2
o2
n3.4477000999999996
o5
v1
n2.0
o5
v0
n2.0
o0
v1
n-0.9
o0
o2
n-2.96
v0
n1.55992
o44
o0
o2
n-1.48
o5
o0
v0
n-0.527
n2.0
o2
n-0.95
o5
o0
v1
n-0.9
n2.0
o2
o2
o2
o2
o2
n0.22205634
o5
v1
n1.66
o5
v0
n3.0
o0
v1
n-1.2
o0
o2
n-2.6
v0
n2.158
o44
o0
o2
n-1.3
o5
o0
v0
n-0.83
n2.0
o2
n-0.11
o5
o0
v1
n-1.2
n2.0
o2
o2
o2
o2
o2
n-4.4844983
v0
o5
v1
n1.63
o0
v1
n-1.04
o0
o2
n-2.64
v0
n2.0935200000000003
o44
o0
o2
n-1.32
o5
o0
v0
n-0.793
n2.0
o2
n-0.83
o5
o0
v1
n-1.04
n2.0
o2
o2
o2
o2
o2
n-0.310353676
o5
v1
n1.3
o5
v0
n2.0
o0
v1
n-1.15
o0
o2
n-2.7
v0
n3.0509999999999997
o44
o0
o2
n-1.35
o5
o0
v0
n-1.13
n2.0
o2
n-0.19
o5
o0
v1
n-1.15
n2.0
o2
o2
o2
o2
o2
n-0.04150778
o5
v1
n1.15
o5
v0
n3.0
o0
v1
n-0.8
o0
o2
n-1.02
v0
n1.2138
o44
o0
o2
n-0.51
o5
o0
v0
n-1.19
n2.0
o2
n-0.1
o5
o0
v1
n-0.8
n2.0
O11 0
o0
o54
3
o2
n1.5545
o5
o0
o16
o3
n1
v1
n1
n0.297
o2
n1.149
o5
o0
o16
o3
n1
v1
n1
n0.7
o2
n0.51565
o5
o0
o16
o3
n1
v1
n1
n4.4
n1.0
O12 0
o44
o54
5
o2
n-1.6073
o5
o0
o16
o3
n1
v1
n1
n0.291
o2
n-5.8095
o5
o0
o16
o3
n1
v1
n1
n0.82
o2
n-17.824
o5
o0
o16
o3
n1
v1
n1
n2.45
o2
n-61.012
o5
o0
o16
o3
n1
v1
n1
n5.5
o2
n-151.3
o5
o0
o16
o3
n1
v1
n1
n12
O13 0
n0.0
x2
0 1.00000001
1 1.0
r
b
3
3
k1
0
G0 2
0 0
1 6.8305296372
G1 1
0 0
G2 1
0 0
G3 1
1 0
G4 1
1 0
G5 2
0 0
1 0
G6 2
0 0
1 0
G7 2
0 0
1 0
G8 2
0 0
1 0
G9 2
0 0
1 0
G10 2
0 0
1 0
G11 1
1 0
G12 1
1 0
